(set-logic QF_S)
(declare-fun var0 () String)
(declare-fun var1 () String)
(declare-fun var2 () String)
(declare-fun var3 () String)
(declare-fun var4 () String)
(declare-fun var5 () String)
(declare-fun var6 () String)
(declare-fun var7 () String)
(declare-fun var8 () String)
(declare-fun var9 () String)
(declare-fun var10 () String)
(declare-fun var11 () String)
(declare-fun var12 () String)
(declare-fun var13 () String)
(declare-fun var14 () String)
(declare-fun var15 () String)
(declare-fun var16 () String)
(declare-fun var17 () String)
(declare-fun var18 () String)
(declare-fun var19 () String)
(declare-fun var20 () String)
(declare-fun var21 () String)
(declare-fun var22 () String)
(declare-fun var23 () String)
(declare-fun var24 () String)
(declare-fun var25 () String)
(declare-fun var26 () String)
(declare-fun var27 () String)
(declare-fun var28 () String)
(declare-fun var29 () String)
(declare-fun var30 () String)
(declare-fun var31 () String)
(declare-fun var32 () String)
(declare-fun var33 () String)
(declare-fun var34 () String)
(declare-fun var35 () String)
(declare-fun var36 () String)
(declare-fun var37 () String)
(declare-fun var38 () String)
(declare-fun var39 () String)
(declare-fun var40 () String)
(declare-fun var41 () String)
(declare-fun var42 () String)
(declare-fun var43 () String)
(declare-fun var44 () String)
(declare-fun var45 () String)
(declare-fun var46 () String)
(declare-fun var47 () String)
(declare-fun var48 () String)
(declare-fun var49 () String)
(declare-fun var50 () String)
(declare-fun var51 () String)
(declare-fun var52 () String)
(declare-fun var53 () String)
(declare-fun var54 () String)
(declare-fun var55 () String)
(declare-fun var56 () String)
(declare-fun var57 () String)
(declare-fun var58 () String)
(declare-fun var59 () String)
(declare-fun var60 () String)
(assert (= var0 (str.++ var1 var2)))
(assert (= var2 (str.++ var3 var4)))
(assert (= var4 (str.++ var5 var6)))
(assert (= var6 (str.++ var7 var8)))
(assert (= var8 (str.++ var9 var10)))
(assert (= var10 (str.++ var11 var12)))
(assert (= var12 (str.++ var13 var14)))
(assert (= var14 (str.++ var15 var16)))
(assert (= var16 (str.++ var17 var18)))
(assert (= var18 (str.++ var19 var20)))
(assert (= var20 (str.++ var21 var22)))
(assert (= var22 (str.++ var23 var24)))
(assert (= var24 (str.++ var25 var26)))
(assert (= var26 (str.++ var27 var28)))
(assert (= var28 (str.++ var29 var30)))
(assert (= var30 (str.++ var31 var32)))
(assert (= var32 (str.++ var33 var34)))
(assert (= var34 (str.++ var35 var36)))
(assert (= var36 (str.++ var37 var38)))
(assert (= var38 (str.++ var39 var40)))
(assert (= var40 (str.++ var41 var42)))
(assert (= var42 (str.++ var43 var44)))
(assert (= var44 (str.++ var45 var46)))
(assert (= var46 (str.++ var47 var48)))
(assert (= var48 (str.++ var49 var50)))
(assert (= var50 (str.++ var51 var52)))
(assert (= var52 (str.++ var53 var54)))
(assert (= var54 (str.++ var55 var56)))
(assert (= var56 (str.++ var57 var58)))
(assert (= var58 (str.++ var59 var60)))
(assert (= var0 "solution"))
(assert (= "$" (str.at var44 385)))
(assert (= ")" (str.at var2 318)))
(assert (= "1" (str.at var51 483)))
(assert (= "9" (str.at var15 546)))
(assert (= "g" (str.at var43 630)))
(assert (= "E" (str.at var17 376)))
(assert (= "g" (str.at var47 49)))
(assert (= "|" (str.at var47 449)))
(assert (= "f" (str.at var23 738)))
(assert (= "G" (str.at var32 588)))
(assert (= "T" (str.at var8 566)))
(assert (= "4" (str.at var57 173)))
(assert (= "x" (str.at var43 199)))
(assert (= "N" (str.at var8 112)))
(assert (= "W" (str.at var17 81)))
(assert (= "," (str.at var17 116)))
(assert (= "c" (str.at var29 474)))
(assert (= "F" (str.at var10 962)))
(assert (= "C" (str.at var40 996)))
(assert (= "N" (str.at var19 317)))
(assert (= "_" (str.at var14 299)))
(assert (= "g" (str.at var18 47)))
(assert (= "$" (str.at var9 746)))
(assert (= "x" (str.at var48 740)))
(assert (= "g" (str.at var26 927)))
(assert (= "*" (str.at var20 250)))
(assert (= "8" (str.at var34 164)))
(assert (= "T" (str.at var18 90)))
(assert (= "j" (str.at var15 407)))
(assert (= "g" (str.at var30 717)))
(assert (= "S" (str.at var10 768)))
(assert (= "x" (str.at var19 161)))
(assert (= "A" (str.at var15 159)))
(assert (= "X" (str.at var22 887)))
(assert (= "D" (str.at var53 431)))
(assert (= """" (str.at var50 709)))
(assert (= "|" (str.at var25 928)))
(assert (= "@" (str.at var4 195)))
(assert (= "g" (str.at var9 991)))
(assert (= "," (str.at var44 818)))
(assert (= "6" (str.at var3 147)))
(assert (= "a" (str.at var9 481)))
(assert (= "L" (str.at var43 514)))
(assert (= "Z" (str.at var45 246)))
(assert (= "I" (str.at var34 734)))
(assert (= "x" (str.at var37 603)))
(assert (= "6" (str.at var50 145)))
(assert (= "Y" (str.at var28 47)))
(assert (= "O" (str.at var59 860)))
(assert (= "W" (str.at var40 870)))
(assert (= "f" (str.at var27 300)))
(assert (= "I" (str.at var9 760)))
(assert (= "t" (str.at var28 742)))
(assert (= "%" (str.at var50 188)))
(assert (= "," (str.at var53 863)))
(assert (= "i" (str.at var2 746)))
(assert (= "Z" (str.at var1 711)))
(assert (= "<" (str.at var31 323)))
(assert (= "J" (str.at var44 360)))
(assert (= "q" (str.at var19 604)))
(assert (= "L" (str.at var25 417)))
(assert (= "K" (str.at var16 707)))
(assert (= "?" (str.at var50 942)))
(assert (= "4" (str.at var58 87)))
(assert (= "B" (str.at var56 349)))
(assert (= "x" (str.at var49 763)))
(assert (= "." (str.at var47 914)))
(assert (= ")" (str.at var6 2)))
(assert (= "D" (str.at var3 740)))
(assert (= "/" (str.at var13 123)))
(assert (= "6" (str.at var43 347)))
(assert (= "#" (str.at var48 216)))
(assert (= "~" (str.at var41 301)))
(assert (= "D" (str.at var18 57)))
(assert (= "!" (str.at var26 878)))
(assert (= "2" (str.at var34 551)))
(assert (= "," (str.at var3 556)))
(assert (= "x" (str.at var12 480)))
(assert (= "6" (str.at var3 435)))
(assert (= "W" (str.at var36 62)))
(assert (= "&" (str.at var23 322)))
(assert (= "D" (str.at var36 938)))
(assert (= "A" (str.at var38 0)))
(assert (= "]" (str.at var55 747)))
(assert (= "^" (str.at var46 949)))
(assert (= "[" (str.at var58 730)))
(assert (= "1" (str.at var29 503)))
(assert (= "j" (str.at var26 34)))
(assert (= "a" (str.at var54 884)))
(assert (= "M" (str.at var0 860)))
(assert (= "M" (str.at var12 527)))
(assert (= "p" (str.at var46 409)))
(assert (= "R" (str.at var45 485)))
(assert (= "B" (str.at var29 459)))
(assert (= "U" (str.at var0 544)))
(assert (= "}" (str.at var16 570)))
(assert (= "r" (str.at var53 952)))
(assert (= "." (str.at var36 302)))
(assert (= "^" (str.at var42 247)))
(assert (= "d" (str.at var10 556)))
(assert (= "B" (str.at var52 815)))
(assert (= "f" (str.at var12 973)))
(assert (= "Z" (str.at var15 518)))
(assert (= "|" (str.at var54 811)))
(assert (= "2" (str.at var34 761)))
(assert (= "D" (str.at var33 783)))
(assert (= "Z" (str.at var58 392)))
(assert (= "x" (str.at var37 801)))
(assert (= "_" (str.at var54 275)))
(assert (= "J" (str.at var36 968)))
(assert (= "l" (str.at var10 660)))
(assert (= "." (str.at var36 517)))
(assert (= "[" (str.at var59 139)))
(assert (= "," (str.at var34 954)))
(assert (= "~" (str.at var55 260)))
(assert (= "B" (str.at var31 473)))
(assert (= ";" (str.at var29 514)))
(assert (= "?" (str.at var10 740)))
(assert (= "Q" (str.at var49 155)))
(assert (= "x" (str.at var60 680)))
(assert (= "N" (str.at var0 401)))
(assert (= "9" (str.at var34 249)))
(assert (= "D" (str.at var48 767)))
(assert (= "e" (str.at var23 259)))
(assert (= "}" (str.at var39 726)))
(assert (= "&" (str.at var3 423)))
(assert (= "D" (str.at var35 601)))
(assert (= "M" (str.at var34 853)))
(assert (= "C" (str.at var50 199)))
(assert (= "4" (str.at var12 160)))
(assert (= "." (str.at var1 22)))
(assert (= "O" (str.at var32 34)))
(assert (= "9" (str.at var19 961)))
(assert (= "!" (str.at var41 453)))
(assert (= "+" (str.at var58 15)))
(assert (= "1" (str.at var23 765)))
(assert (= "i" (str.at var44 683)))
(assert (= "6" (str.at var13 304)))
(assert (= "[" (str.at var46 133)))
(assert (= "b" (str.at var7 726)))
(assert (= "=" (str.at var6 386)))
(assert (= ")" (str.at var7 951)))
(assert (= "$" (str.at var26 915)))
(assert (= "Z" (str.at var12 337)))
(assert (= "3" (str.at var8 646)))
(assert (= "j" (str.at var15 581)))
(assert (= "/" (str.at var6 156)))
(assert (= "s" (str.at var19 410)))
(assert (= "o" (str.at var33 269)))
(assert (= "x" (str.at var9 25)))
(assert (= "w" (str.at var26 859)))
(assert (= "N" (str.at var17 449)))
(assert (= "?" (str.at var0 378)))
(assert (= "}" (str.at var4 670)))
(assert (= "u" (str.at var34 513)))
(assert (= "K" (str.at var46 154)))
(assert (= "{" (str.at var54 432)))
(assert (= "g" (str.at var30 214)))
(assert (= "g" (str.at var11 544)))
(assert (= "_" (str.at var59 103)))
(assert (= """" (str.at var45 419)))
(assert (= "R" (str.at var2 157)))
(assert (= "~" (str.at var38 824)))
(assert (= "U" (str.at var33 732)))
(assert (= "t" (str.at var52 988)))
(assert (= "H" (str.at var49 231)))
(assert (= "\\" (str.at var29 661)))
(assert (= "|" (str.at var38 632)))
(assert (= "<" (str.at var30 762)))
(assert (= "n" (str.at var47 266)))
(assert (= "4" (str.at var37 952)))
(assert (= "|" (str.at var29 91)))
(assert (= "F" (str.at var23 456)))
(assert (= "f" (str.at var25 315)))
(assert (= "7" (str.at var35 317)))
(assert (= "N" (str.at var37 449)))
(assert (= "3" (str.at var24 191)))
(assert (= "P" (str.at var11 343)))
(assert (= "P" (str.at var37 647)))
(assert (= "B" (str.at var54 780)))
(assert (= "g" (str.at var57 900)))
(assert (= "z" (str.at var15 492)))
(assert (= "C" (str.at var58 555)))
(assert (= "9" (str.at var28 434)))
(assert (= "m" (str.at var42 411)))
(assert (= "~" (str.at var31 665)))
(assert (= "'" (str.at var7 603)))
(assert (= "V" (str.at var22 574)))
(assert (= "r" (str.at var24 682)))
(assert (= "k" (str.at var24 997)))
(assert (= "%" (str.at var20 879)))
(assert (= ">" (str.at var44 93)))
(assert (= "j" (str.at var59 971)))
(assert (= "^" (str.at var24 630)))
(assert (= "~" (str.at var32 265)))
(assert (= "f" (str.at var50 297)))
(assert (= "m" (str.at var24 179)))
(assert (= "c" (str.at var59 342)))
(assert (= "V" (str.at var20 113)))
(assert (= ":" (str.at var3 506)))
(assert (= "X" (str.at var9 50)))
(assert (= "+" (str.at var19 657)))
(assert (= "=" (str.at var2 313)))
(assert (= "k" (str.at var7 633)))
(assert (= "7" (str.at var39 682)))
(assert (= "t" (str.at var44 839)))
(assert (= "X" (str.at var55 481)))
(assert (= "[" (str.at var5 76)))
(assert (= "-" (str.at var30 176)))
(assert (= "o" (str.at var47 297)))
(assert (= "." (str.at var52 742)))
(assert (= "?" (str.at var41 433)))
(assert (= "~" (str.at var5 778)))
(assert (= "#" (str.at var46 877)))
(assert (= "X" (str.at var41 997)))
(assert (= "$" (str.at var8 957)))
(assert (= "r" (str.at var54 524)))
(assert (= ":" (str.at var12 89)))
(assert (= "B" (str.at var19 681)))
(assert (= "f" (str.at var13 28)))
(assert (= "I" (str.at var19 118)))
(assert (= "7" (str.at var52 51)))
(assert (= "*" (str.at var21 722)))
(assert (= "1" (str.at var3 375)))
(assert (= "A" (str.at var40 812)))
(assert (= ">" (str.at var34 241)))
(assert (= "D" (str.at var41 953)))
(assert (= "H" (str.at var13 211)))
(assert (= "J" (str.at var14 690)))
(assert (= "p" (str.at var18 176)))
(assert (= "!" (str.at var59 789)))
(assert (= "E" (str.at var49 458)))
(assert (= "8" (str.at var38 160)))
(assert (= "7" (str.at var21 500)))
(assert (= "1" (str.at var33 859)))
(assert (= "i" (str.at var54 754)))
(assert (= "e" (str.at var42 982)))
(assert (= "I" (str.at var13 658)))
(assert (= "l" (str.at var24 116)))
(assert (= "y" (str.at var18 928)))
(assert (= "%" (str.at var32 773)))
(assert (= "s" (str.at var7 309)))
(assert (= "6" (str.at var2 618)))
(assert (= "$" (str.at var18 696)))
(assert (= "u" (str.at var34 7)))
(assert (= "L" (str.at var3 745)))
(assert (= "S" (str.at var59 995)))
(assert (= "R" (str.at var19 664)))
(assert (= "H" (str.at var1 582)))
(assert (= "9" (str.at var3 919)))
(assert (= "x" (str.at var23 751)))
(assert (= "X" (str.at var1 945)))
(assert (= "@" (str.at var46 106)))
(assert (= "E" (str.at var49 706)))
(assert (= ")" (str.at var6 274)))
(assert (= "N" (str.at var40 266)))
(assert (= "A" (str.at var12 790)))
(assert (= "5" (str.at var57 835)))
(assert (= ">" (str.at var36 467)))
(assert (= "#" (str.at var45 364)))
(assert (= "n" (str.at var30 738)))
(assert (= "g" (str.at var15 398)))
(assert (= "3" (str.at var23 488)))
(assert (= "*" (str.at var18 786)))
(assert (= "~" (str.at var1 673)))
(assert (= "," (str.at var38 470)))
(assert (= "." (str.at var12 778)))
(assert (= "=" (str.at var53 56)))
(assert (= "S" (str.at var47 857)))
(assert (= "/" (str.at var20 894)))
(assert (= "a" (str.at var50 998)))
(assert (= "}" (str.at var57 206)))
(assert (= "m" (str.at var54 2)))
(assert (= "^" (str.at var42 97)))
(assert (= "D" (str.at var35 406)))
(assert (= "{" (str.at var7 136)))
(assert (= "6" (str.at var42 649)))
(assert (= "<" (str.at var45 613)))
(assert (= "C" (str.at var26 27)))
(assert (= "8" (str.at var27 967)))
(assert (= "r" (str.at var16 839)))
(assert (= "\\" (str.at var47 997)))
(assert (= "|" (str.at var7 120)))
(assert (= "j" (str.at var0 493)))
(assert (= "+" (str.at var52 883)))
(assert (= "~" (str.at var23 319)))
(assert (= "|" (str.at var58 683)))
(assert (= "y" (str.at var52 767)))
(assert (= "P" (str.at var35 751)))
(assert (= "*" (str.at var39 788)))
(assert (= "k" (str.at var27 337)))
(assert (= "?" (str.at var27 37)))
(assert (= "E" (str.at var43 273)))
(assert (= "w" (str.at var51 602)))
(assert (= "D" (str.at var16 83)))
(assert (= "S" (str.at var28 712)))
(assert (= "s" (str.at var27 799)))
(assert (= "I" (str.at var59 493)))
(assert (= "L" (str.at var18 508)))
(assert (= "G" (str.at var21 466)))
(assert (= "E" (str.at var30 498)))
(assert (= "b" (str.at var52 502)))
(assert (= "~" (str.at var0 931)))
(assert (= "z" (str.at var56 131)))
(assert (= "k" (str.at var48 303)))
(assert (= "{" (str.at var22 332)))
(assert (= "`" (str.at var3 239)))
(assert (= "p" (str.at var1 278)))
(assert (= "0" (str.at var43 297)))
(assert (= "T" (str.at var1 694)))
(assert (= "E" (str.at var57 58)))
(assert (= "&" (str.at var30 534)))
(assert (= "Q" (str.at var25 120)))
(assert (= ">" (str.at var4 672)))
(assert (= "M" (str.at var47 802)))
(assert (= "*" (str.at var54 787)))
(assert (= "!" (str.at var8 30)))
(assert (= "6" (str.at var49 164)))
(assert (= "J" (str.at var36 925)))
(assert (= "x" (str.at var13 903)))
(assert (= "M" (str.at var0 769)))
(assert (= "b" (str.at var21 303)))
(assert (= "l" (str.at var55 116)))
(assert (= "I" (str.at var22 689)))
(assert (= "x" (str.at var57 449)))
(assert (= ":" (str.at var44 909)))
(assert (= "*" (str.at var43 690)))
(assert (= "Q" (str.at var60 443)))
(assert (= "h" (str.at var13 243)))
(assert (= ">" (str.at var60 43)))
(assert (= "Z" (str.at var24 253)))
(assert (= "0" (str.at var36 124)))
(assert (= "4" (str.at var52 239)))
(assert (= "=" (str.at var53 360)))
(assert (= "`" (str.at var45 586)))
(assert (= "7" (str.at var39 175)))
(assert (= "b" (str.at var4 741)))
(assert (= "r" (str.at var47 374)))
(assert (= "_" (str.at var5 630)))
(assert (= "q" (str.at var53 383)))
(assert (= "v" (str.at var38 876)))
(assert (= "+" (str.at var0 806)))
(assert (= "2" (str.at var25 310)))
(assert (= "U" (str.at var20 186)))
(assert (= "|" (str.at var21 404)))
(assert (= "#" (str.at var33 28)))
(assert (= "=" (str.at var59 948)))
(assert (= "t" (str.at var11 14)))
(assert (= "]" (str.at var44 557)))
(assert (= "@" (str.at var44 420)))
(assert (= "m" (str.at var23 428)))
(assert (= "\\" (str.at var8 90)))
(assert (= "(" (str.at var40 688)))
(assert (= "T" (str.at var32 254)))
(assert (= "_" (str.at var48 651)))
(assert (= "f" (str.at var58 721)))
(assert (= "s" (str.at var18 684)))
(assert (= "(" (str.at var27 426)))
(assert (= "}" (str.at var17 721)))
(assert (= "T" (str.at var12 328)))
(assert (= "O" (str.at var3 474)))
(assert (= "p" (str.at var43 291)))
(assert (= "2" (str.at var1 138)))
(assert (= "~" (str.at var60 417)))
(assert (= "I" (str.at var47 944)))
(assert (= "m" (str.at var48 903)))
(assert (= "V" (str.at var20 870)))
(assert (= "W" (str.at var33 847)))
(assert (= "c" (str.at var48 301)))
(assert (= "(" (str.at var53 723)))
(assert (= "D" (str.at var43 991)))
(assert (= "C" (str.at var26 287)))
(assert (= "1" (str.at var31 736)))
(assert (= "i" (str.at var35 362)))
(assert (= "7" (str.at var22 909)))
(assert (= "=" (str.at var52 645)))
(assert (= "!" (str.at var18 346)))
(assert (= "W" (str.at var15 936)))
(assert (= "v" (str.at var20 359)))
(assert (= "m" (str.at var12 457)))
(assert (= "z" (str.at var53 710)))
(assert (= "." (str.at var60 558)))
(assert (= "}" (str.at var20 182)))
(assert (= "u" (str.at var48 696)))
(assert (= "%" (str.at var35 240)))
(assert (= "j" (str.at var8 317)))
(assert (= "|" (str.at var20 314)))
(assert (= "&" (str.at var14 897)))
(assert (= "`" (str.at var1 185)))
(assert (= "L" (str.at var43 833)))
(assert (= "A" (str.at var42 765)))
(assert (= "|" (str.at var47 767)))
(assert (= "<" (str.at var16 469)))
(assert (= "s" (str.at var51 447)))
(assert (= "Q" (str.at var5 180)))
(assert (= ">" (str.at var40 479)))
(assert (= "P" (str.at var25 593)))
(assert (= "'" (str.at var24 88)))
(assert (= "F" (str.at var37 623)))
(assert (= "h" (str.at var19 69)))
(assert (= "g" (str.at var1 240)))
(assert (= "5" (str.at var6 927)))
(assert (= "t" (str.at var29 5)))
(assert (= "X" (str.at var47 186)))
(assert (= "w" (str.at var18 920)))
(assert (= "}" (str.at var42 300)))
(assert (= "a" (str.at var26 956)))
(assert (= "O" (str.at var55 33)))
(assert (= "/" (str.at var47 430)))
(assert (= "H" (str.at var20 353)))
(assert (= "\\" (str.at var31 188)))
(assert (= "Q" (str.at var45 684)))
(assert (= "Z" (str.at var48 595)))
(assert (= "Z" (str.at var58 246)))
(assert (= "S" (str.at var10 336)))
(assert (= "u" (str.at var11 675)))
(assert (= "n" (str.at var52 319)))
(assert (= "_" (str.at var7 23)))
(assert (= "&" (str.at var9 710)))
(assert (= "d" (str.at var51 549)))
(assert (= "B" (str.at var52 207)))
(assert (= ">" (str.at var20 206)))
(assert (= "B" (str.at var17 603)))
(assert (= "R" (str.at var23 652)))
(assert (= "g" (str.at var8 223)))
(assert (= "`" (str.at var45 920)))
(assert (= "r" (str.at var59 367)))
(assert (= "L" (str.at var37 850)))
(assert (= "g" (str.at var56 994)))
(assert (= "," (str.at var51 370)))
(assert (= "!" (str.at var3 138)))
(assert (= "{" (str.at var50 487)))
(assert (= "F" (str.at var35 605)))
(assert (= "=" (str.at var59 577)))
(assert (= "E" (str.at var55 797)))
(assert (= "." (str.at var15 879)))
(assert (= "5" (str.at var37 162)))
(assert (= "l" (str.at var1 854)))
(assert (= "v" (str.at var40 668)))
(assert (= "(" (str.at var26 611)))
(assert (= "G" (str.at var38 706)))
(assert (= ">" (str.at var16 871)))
(assert (= "X" (str.at var57 936)))
(assert (= "z" (str.at var10 324)))
(assert (= "r" (str.at var11 894)))
(assert (= "K" (str.at var19 670)))
(assert (= "T" (str.at var18 863)))
(assert (= "c" (str.at var22 39)))
(assert (= "o" (str.at var35 564)))
(assert (= "?" (str.at var1 302)))
(assert (= "H" (str.at var45 183)))
(assert (= "8" (str.at var55 80)))
(assert (= "V" (str.at var7 991)))
(assert (= "Q" (str.at var58 199)))
(assert (= "y" (str.at var51 362)))
(assert (= "l" (str.at var24 380)))
(assert (= "`" (str.at var41 493)))
(assert (= "7" (str.at var54 234)))
(assert (= "0" (str.at var7 451)))
(assert (= "x" (str.at var12 324)))
(assert (= "b" (str.at var48 372)))
(assert (= "W" (str.at var12 175)))
(assert (= "J" (str.at var58 722)))
(assert (= "9" (str.at var34 665)))
(assert (= "O" (str.at var53 694)))
(assert (= "b" (str.at var59 611)))
(assert (= "," (str.at var47 874)))
(assert (= "<" (str.at var47 261)))
(assert (= "d" (str.at var42 515)))
(assert (= "w" (str.at var42 679)))
(assert (= "N" (str.at var34 247)))
(assert (= "3" (str.at var4 100)))
(assert (= "V" (str.at var11 332)))
(assert (= "O" (str.at var17 214)))
(assert (= "s" (str.at var16 891)))
(assert (= "p" (str.at var56 153)))
(assert (= "-" (str.at var18 296)))
(assert (= "L" (str.at var11 464)))
(assert (= "H" (str.at var46 94)))
(assert (= "B" (str.at var60 585)))
(assert (= "m" (str.at var31 977)))
(assert (= "d" (str.at var45 858)))
(assert (= "i" (str.at var39 703)))
(assert (= "%" (str.at var55 459)))
(assert (= "." (str.at var17 361)))
(assert (= "y" (str.at var16 518)))
(assert (= "t" (str.at var20 911)))
(assert (= "i" (str.at var36 945)))
(assert (= "e" (str.at var19 176)))
(assert (= "\\" (str.at var6 828)))
(assert (= "`" (str.at var6 756)))
(assert (= "x" (str.at var57 110)))
(assert (= "J" (str.at var43 587)))
(assert (= "9" (str.at var27 1)))
(assert (= "b" (str.at var46 97)))
(assert (= "=" (str.at var55 284)))
(assert (= "8" (str.at var19 402)))
(assert (= "j" (str.at var49 14)))
(assert (= "R" (str.at var8 276)))
(assert (= "[" (str.at var30 934)))
(assert (= "]" (str.at var25 465)))
(assert (= "J" (str.at var3 26)))
(assert (= "l" (str.at var16 403)))
(assert (= "_" (str.at var5 663)))
(assert (= ">" (str.at var11 426)))
(assert (= "S" (str.at var1 833)))
(assert (= "'" (str.at var59 940)))
(assert (= "D" (str.at var22 174)))
(assert (= "t" (str.at var49 694)))
(assert (= "=" (str.at var50 622)))
(assert (= """" (str.at var8 379)))
(assert (= "]" (str.at var35 432)))
(assert (= "/" (str.at var30 872)))
(assert (= "?" (str.at var21 97)))
(assert (= "D" (str.at var35 391)))
(assert (= "s" (str.at var47 132)))
(assert (= "t" (str.at var22 697)))
(assert (= "-" (str.at var37 79)))
(assert (= "G" (str.at var18 725)))
(assert (= "v" (str.at var40 555)))
(assert (= "<" (str.at var41 547)))
(assert (= "`" (str.at var6 164)))
(assert (= "Q" (str.at var10 303)))
(assert (= "C" (str.at var39 683)))
(assert (= "S" (str.at var54 300)))
(assert (= "=" (str.at var11 600)))
(assert (= "v" (str.at var14 577)))
(assert (= "Z" (str.at var47 106)))
(assert (= "V" (str.at var4 191)))
(assert (= "^" (str.at var15 183)))
(assert (= "r" (str.at var50 560)))
(assert (= "<" (str.at var1 948)))
(assert (= "]" (str.at var57 340)))
(assert (= "K" (str.at var16 742)))
(assert (= "Q" (str.at var36 381)))
(assert (= "k" (str.at var45 977)))
(assert (= "u" (str.at var0 993)))
(assert (= "h" (str.at var12 408)))
(assert (= "^" (str.at var45 498)))
(assert (= "'" (str.at var10 922)))
(assert (= "e" (str.at var18 843)))
(assert (= "t" (str.at var57 952)))
(assert (= "e" (str.at var26 511)))
(assert (= "M" (str.at var2 819)))
(assert (= "[" (str.at var5 723)))
(assert (= "=" (str.at var14 204)))
(assert (= "Z" (str.at var45 723)))
(assert (= "C" (str.at var52 798)))
(assert (= "v" (str.at var7 384)))
(assert (= "%" (str.at var7 665)))
(assert (= "]" (str.at var55 949)))
(assert (= "<" (str.at var40 717)))
(assert (= "N" (str.at var5 94)))
(assert (= "q" (str.at var53 102)))
(assert (= "s" (str.at var4 285)))
(assert (= "l" (str.at var33 760)))
(assert (= "A" (str.at var14 602)))
(assert (= "$" (str.at var34 211)))
(assert (= "#" (str.at var15 880)))
(assert (= "," (str.at var32 703)))
(assert (= "i" (str.at var50 308)))
(assert (= "M" (str.at var6 523)))
(assert (= "x" (str.at var12 373)))
(assert (= "l" (str.at var15 326)))
(assert (= "k" (str.at var39 593)))
(assert (= "[" (str.at var6 747)))
(assert (= "N" (str.at var18 631)))
(assert (= "u" (str.at var2 613)))
(assert (= "z" (str.at var59 109)))
(assert (= "s" (str.at var42 371)))
(assert (= "`" (str.at var40 139)))
(assert (= "+" (str.at var22 637)))
(assert (= "Y" (str.at var1 865)))
(assert (= "8" (str.at var18 235)))
(assert (= "o" (str.at var5 473)))
(assert (= "o" (str.at var26 834)))
(assert (= "2" (str.at var34 649)))
(assert (= "@" (str.at var14 136)))
(assert (= "_" (str.at var53 925)))
(assert (= "f" (str.at var38 775)))
(assert (= "#" (str.at var53 891)))
(assert (= "u" (str.at var2 617)))
(assert (= "," (str.at var9 173)))
(assert (= "3" (str.at var29 720)))
(assert (= "\\" (str.at var37 634)))
(assert (= "b" (str.at var39 142)))
(assert (= "9" (str.at var4 290)))
(assert (= "+" (str.at var50 127)))
(assert (= "T" (str.at var45 411)))
(assert (= "i" (str.at var25 831)))
(assert (= "-" (str.at var1 892)))
(assert (= "s" (str.at var10 87)))
(assert (= "9" (str.at var60 882)))
(assert (= "Z" (str.at var59 363)))
(assert (= "," (str.at var1 435)))
(assert (= "y" (str.at var35 427)))
(assert (= "v" (str.at var22 55)))
(assert (= "W" (str.at var37 930)))
(assert (= "." (str.at var28 347)))
(assert (= """" (str.at var47 172)))
(assert (= "R" (str.at var18 101)))
(assert (= "b" (str.at var6 529)))
(assert (= "u" (str.at var53 358)))
(assert (= "h" (str.at var28 104)))
(assert (= "*" (str.at var58 480)))
(assert (= "Z" (str.at var15 746)))
(assert (= "R" (str.at var28 207)))
(assert (= "'" (str.at var4 346)))
(assert (= "H" (str.at var54 708)))
(assert (= "7" (str.at var7 898)))
(assert (= "_" (str.at var47 639)))
(assert (= "H" (str.at var24 180)))
(assert (= """" (str.at var17 384)))
(assert (= "`" (str.at var60 870)))
(assert (= "G" (str.at var31 325)))
(assert (= "!" (str.at var35 1000)))
(assert (= "=" (str.at var16 102)))
(assert (= "u" (str.at var24 692)))
(assert (= "P" (str.at var10 156)))
(assert (= "B" (str.at var16 103)))
(assert (= "R" (str.at var46 143)))
(assert (= "." (str.at var41 862)))
(assert (= "6" (str.at var43 315)))
(assert (= "{" (str.at var29 233)))
(assert (= "?" (str.at var50 514)))
(assert (= "V" (str.at var39 730)))
(assert (= "\\" (str.at var1 687)))
(assert (= "A" (str.at var21 261)))
(assert (= "^" (str.at var20 305)))
(assert (= "?" (str.at var31 966)))
(assert (= "y" (str.at var55 957)))
(assert (= "*" (str.at var1 152)))
(assert (= "J" (str.at var50 592)))
(assert (= "Z" (str.at var46 440)))
(assert (= "B" (str.at var28 835)))
(assert (= "^" (str.at var17 126)))
(assert (= "J" (str.at var28 918)))
(assert (= "." (str.at var8 17)))
(assert (= "." (str.at var31 275)))
(assert (= "x" (str.at var59 277)))
(assert (= "+" (str.at var59 388)))
(assert (= "_" (str.at var15 284)))
(assert (= "i" (str.at var55 719)))
(assert (= "z" (str.at var47 484)))
(assert (= "T" (str.at var36 572)))
(assert (= "d" (str.at var33 399)))
(assert (= "K" (str.at var6 462)))
(assert (= "H" (str.at var25 596)))
(assert (= "{" (str.at var56 346)))
(assert (= "w" (str.at var22 778)))
(assert (= "'" (str.at var49 941)))
(assert (= """" (str.at var4 36)))
(assert (= "m" (str.at var52 726)))
(assert (= "'" (str.at var4 252)))
(assert (= "V" (str.at var55 965)))
(assert (= "%" (str.at var7 300)))
(assert (= "." (str.at var15 482)))
(assert (= "e" (str.at var13 311)))
(assert (= "+" (str.at var29 866)))
(assert (= ";" (str.at var22 218)))
(assert (= "m" (str.at var9 36)))
(assert (= "f" (str.at var55 184)))
(assert (= "u" (str.at var52 715)))
(assert (= "\\" (str.at var25 581)))
(assert (= "+" (str.at var56 290)))
(assert (= "u" (str.at var28 478)))
(assert (= "+" (str.at var11 245)))
(assert (= "[" (str.at var21 51)))
(assert (= "z" (str.at var19 361)))
(assert (= "7" (str.at var48 288)))
(assert (= "O" (str.at var32 870)))
(assert (= "y" (str.at var51 935)))
(assert (= "A" (str.at var3 510)))
(assert (= "J" (str.at var52 67)))
(assert (= "T" (str.at var9 851)))
(assert (= "]" (str.at var9 650)))
(assert (= "q" (str.at var15 927)))
(assert (= "H" (str.at var4 293)))
(assert (= "m" (str.at var53 819)))
(assert (= "l" (str.at var36 258)))
(assert (= "0" (str.at var0 98)))
(assert (= "s" (str.at var37 10)))
(assert (= "8" (str.at var15 160)))
(assert (= "S" (str.at var22 788)))
(assert (= "." (str.at var43 170)))
(assert (= "k" (str.at var28 709)))
(assert (= "j" (str.at var54 17)))
(assert (= "<" (str.at var0 17)))
(assert (= "P" (str.at var59 293)))
(assert (= "V" (str.at var47 247)))
(assert (= "{" (str.at var44 77)))
(assert (= "\\" (str.at var3 934)))
(assert (= "o" (str.at var1 826)))
(assert (= "p" (str.at var5 815)))
(assert (= "G" (str.at var46 29)))
(assert (= ";" (str.at var8 202)))
(assert (= "J" (str.at var5 638)))
(assert (= "L" (str.at var19 924)))
(assert (= "a" (str.at var2 984)))
(assert (= "a" (str.at var34 96)))
(assert (= "9" (str.at var5 769)))
(assert (= "O" (str.at var38 173)))
(assert (= "-" (str.at var13 277)))
(assert (= "J" (str.at var46 626)))
(assert (= "H" (str.at var12 696)))
(assert (= ")" (str.at var60 16)))
(assert (= "L" (str.at var22 898)))
(assert (= ">" (str.at var60 902)))
(assert (= "]" (str.at var37 323)))
(assert (= "}" (str.at var17 335)))
(assert (= "e" (str.at var59 554)))
(assert (= "+" (str.at var17 248)))
(assert (= """" (str.at var34 767)))
(assert (= "M" (str.at var60 580)))
(assert (= "7" (str.at var16 422)))
(assert (= "R" (str.at var43 403)))
(assert (= "1" (str.at var0 399)))
(assert (= "v" (str.at var25 961)))
(assert (= "&" (str.at var58 650)))
(assert (= "3" (str.at var34 886)))
(assert (= "K" (str.at var56 39)))
(assert (= "-" (str.at var9 293)))
(assert (= "$" (str.at var15 933)))
(assert (= "'" (str.at var30 241)))
(assert (= "<" (str.at var21 544)))
(assert (= "l" (str.at var45 414)))
(assert (= "J" (str.at var11 722)))
(assert (= "G" (str.at var44 200)))
(assert (= "o" (str.at var55 878)))
(assert (= "r" (str.at var43 767)))
(assert (= "F" (str.at var47 920)))
(assert (= "C" (str.at var28 453)))
(assert (= "}" (str.at var11 24)))
(assert (= "T" (str.at var8 245)))
(assert (= "1" (str.at var37 578)))
(assert (= "&" (str.at var50 335)))
(assert (= "Z" (str.at var58 278)))
(assert (= "B" (str.at var52 362)))
(assert (= "$" (str.at var31 104)))
(assert (= "+" (str.at var18 854)))
(assert (= "G" (str.at var25 239)))
(assert (= "3" (str.at var8 933)))
(assert (= "4" (str.at var18 662)))
(assert (= "e" (str.at var47 419)))
(assert (= "g" (str.at var35 651)))
(assert (= "k" (str.at var11 831)))
(assert (= "2" (str.at var32 115)))
(assert (= "y" (str.at var12 329)))
(assert (= "M" (str.at var19 910)))
(assert (= "7" (str.at var27 112)))
(assert (= "," (str.at var47 710)))
(assert (= "w" (str.at var9 551)))
(assert (= "F" (str.at var2 710)))
(assert (= "w" (str.at var22 500)))
(assert (= "U" (str.at var38 68)))
(assert (= "I" (str.at var41 779)))
(assert (= "z" (str.at var21 432)))
(assert (= "t" (str.at var11 257)))
(assert (= "0" (str.at var35 415)))
(assert (= "u" (str.at var9 747)))
(assert (= "\\" (str.at var51 680)))
(check-sat)
(get-model)